Route #1: 5 12 58
Route #2: 35 46 31
Route #3: 59 60 82
Route #4: 75 93
Route #5: 15 22 41 20
Route #6: 34 64 96 48 26 47 38
Route #7: 32 33 53 73 95 24
Route #8: 71 62 99 98 89
Route #9: 23 61 100
Route #10: 19 97 27
Route #11: 92 9 86
Route #12: 8 17
Route #13: 25 65 78 42 28
Route #14: 30 85 11 79
Route #15: 21 56 94 80
Route #16: 7 2 45 43 29 36 72 57
Route #17: 14 49 6 37 87
Route #18: 3 77 63
Route #19: 69 16 55 76
Route #20: 40 88 67 44
Route #21: 50 91 52
Route #22: 66 84 90 68
Route #23: 83 51 81
Route #24: 18 10 39
Route #25: 4 13 74
Route #26: 1 70 54
Cost 27591.0000
Time 16.0003